(set-option :produce-models true); benchmark generated from python API
(set-info :status unknown)
(declare-fun l_0_0_7 () Real)
(declare-fun l_0_0_1 () Real)
(declare-fun _a_0_ () Real)
(declare-fun l_0_0_9 () Real)
(declare-fun l_0_0_8 () Real)
(declare-fun l_0_0_3 () Real)
(declare-fun l_0_0_2 () Real)
(declare-fun _a_1_ () Real)
(declare-fun l_0_0_10 () Real)
(declare-fun l_0_0_4 () Real)
(declare-fun _a_2_ () Real)
(declare-fun l_0_0_6 () Real)
(declare-fun l_0_0_5 () Real)
(declare-fun l_0_0_12 () Real)
(declare-fun l_0_0_11 () Real)
(declare-fun _a_3_ () Real)
(declare-fun _a_4_ () Real)
(declare-fun _a_5_ () Real)
(declare-fun l_0_1_7 () Real)
(declare-fun l_0_1_13 () Real)
(declare-fun l_0_1_1 () Real)
(declare-fun l_0_1_16 () Real)
(declare-fun l_0_1_10 () Real)
(declare-fun l_0_1_4 () Real)
(declare-fun l_0_1_9 () Real)
(declare-fun l_0_1_8 () Real)
(declare-fun l_0_1_15 () Real)
(declare-fun l_0_1_14 () Real)
(declare-fun l_0_1_2 () Real)
(declare-fun l_0_1_3 () Real)
(declare-fun l_0_1_17 () Real)
(declare-fun l_0_1_11 () Real)
(declare-fun l_0_1_5 () Real)
(declare-fun l_0_1_18 () Real)
(declare-fun l_0_1_12 () Real)
(declare-fun l_0_1_6 () Real)
(declare-fun l_0_2_7 () Real)
(declare-fun l_0_2_13 () Real)
(declare-fun l_0_2_1 () Real)
(declare-fun l_0_2_9 () Real)
(declare-fun l_0_2_8 () Real)
(declare-fun l_0_2_3 () Real)
(declare-fun l_0_2_2 () Real)
(declare-fun l_0_2_10 () Real)
(declare-fun l_0_2_5 () Real)
(declare-fun l_0_2_4 () Real)
(declare-fun l_0_2_15 () Real)
(declare-fun l_0_2_14 () Real)
(declare-fun l_0_2_18 () Real)
(declare-fun l_0_2_17 () Real)
(declare-fun l_0_2_16 () Real)
(declare-fun l_0_2_12 () Real)
(declare-fun l_0_2_11 () Real)
(declare-fun l_0_2_6 () Real)
(assert
 (let ((?x63 (* l_0_0_7 l_0_0_7)))
 (= (- (- _a_0_ (* (* 2.0 l_0_0_1) l_0_0_1)) ?x63) 0.0)))
(assert
 (let ((?x106 (* l_0_0_9 l_0_0_9)))
 (let ((?x104 (* l_0_0_8 l_0_0_8)))
 (let ((?x85 (* l_0_0_1 l_0_0_1)))
 (let ((?x97 (+ _a_1_ ?x85)))
 (let ((?x103 (- (- ?x97 (* (* 2.0 l_0_0_2) l_0_0_2)) (* (* 2.0 l_0_0_3) l_0_0_3))))
 (= (- (- ?x103 ?x104) ?x106) 0.0)))))))
(assert
 (let ((?x134 (- (- _a_2_ (* (* 4.0 l_0_0_1) l_0_0_4)) (* (* 2.0 l_0_0_10) l_0_0_7))))
 (= ?x134 0.0)))
(assert
 (let ((?x155 (* l_0_0_12 l_0_0_12)))
 (let ((?x153 (* l_0_0_11 l_0_0_11)))
 (let ((?x154 (- (- (+ _a_3_ (* l_0_0_1 l_0_0_1)) (* l_0_0_10 l_0_0_10)) ?x153)))
 (let ((?x162 (- (- (- ?x154 ?x155) (* (* 2.0 l_0_0_4) l_0_0_4)) (* (* 2.0 l_0_0_5) l_0_0_5))))
 (= (- ?x162 (* (* 2.0 l_0_0_6) l_0_0_6)) 0.0))))))
(assert
 (let ((?x199 (- (- _a_4_ (* (* 4.0 l_0_0_1) l_0_0_2)) (* (* 2.0 l_0_0_7) l_0_0_8))))
 (= ?x199 0.0)))
(assert
 (let ((?x218 (- (- _a_5_ (* (* 2.0 l_0_0_10) l_0_0_8)) (* (* 2.0 l_0_0_11) l_0_0_9))))
 (let ((?x224 (- (- ?x218 (* (* 4.0 l_0_0_2) l_0_0_4)) (* (* 4.0 l_0_0_3) l_0_0_5))))
 (= ?x224 0.0))))
(assert
 (= (* (* 2.0 l_0_0_1) l_0_0_2) 0.0))
(assert
 (= (* (* 2.0 l_0_0_1) l_0_0_4) 0.0))
(assert
 (let ((?x115 (* l_0_0_3 l_0_0_3)))
 (let ((?x109 (* l_0_0_2 l_0_0_2)))
 (let ((?x256 (+ ?x109 ?x115)))
 (= ?x256 0.0)))))
(assert
 (let ((?x261 (+ (* (* 2.0 l_0_0_2) l_0_0_4) (* (* 2.0 l_0_0_3) l_0_0_5))))
 (= ?x261 0.0)))
(assert
 (let ((?x188 (* l_0_0_6 l_0_0_6)))
 (let ((?x182 (* l_0_0_5 l_0_0_5)))
 (let ((?x176 (* l_0_0_4 l_0_0_4)))
 (let ((?x115 (* l_0_0_3 l_0_0_3)))
 (let ((?x109 (* l_0_0_2 l_0_0_2)))
 (let ((?x256 (+ ?x109 ?x115)))
 (= (+ (+ (+ ?x256 ?x176) ?x182) ?x188) 0.0))))))))
(assert
 (= (* (* 2.0 l_0_0_1) l_0_0_2) 0.0))
(assert
 (= (* (* 2.0 l_0_0_1) l_0_0_4) 0.0))
(assert
 (let ((?x261 (+ (* (* 2.0 l_0_0_2) l_0_0_4) (* (* 2.0 l_0_0_3) l_0_0_5))))
 (= ?x261 0.0)))
(assert
 (let ((?x188 (* l_0_0_6 l_0_0_6)))
 (= (+ (+ (* l_0_0_4 l_0_0_4) (* l_0_0_5 l_0_0_5)) ?x188) 0.0)))
(assert
 (>= l_0_0_1 0.0))
(assert
 (>= l_0_0_3 0.0))
(assert
 (>= l_0_0_6 0.0))
(assert
 (>= l_0_0_7 0.0))
(assert
 (>= l_0_0_9 0.0))
(assert
 (>= l_0_0_12 0.0))
(assert
 (let ((?x292 (+ (- (* (* (- _a_0_) l_0_1_1) l_0_1_1) (* l_0_1_13 l_0_1_13)) (* 3.0 (* l_0_1_7 l_0_1_7)))))
 (= (+ ?x292 (/ 121.0 100.0)) 0.0)))
(assert
 (let ((?x311 (- (* (* (* (- 2.0) _a_0_) l_0_1_1) l_0_1_4) (* (* _a_2_ l_0_1_1) l_0_1_1))))
 (let ((?x318 (- (+ ?x311 (* (* 6.0 l_0_1_10) l_0_1_7)) (* (* 2.0 l_0_1_13) l_0_1_16))))
 (= (+ ?x318 1.0) 0.0))))
(assert
 (let ((?x361 (* l_0_1_9 l_0_1_9)))
 (let ((?x362 (* 3.0 ?x361)))
 (let ((?x358 (* l_0_1_8 l_0_1_8)))
 (let ((?x359 (* 3.0 ?x358)))
 (let ((?x289 (* l_0_1_7 l_0_1_7)))
 (let ((?x355 (* l_0_1_15 l_0_1_15)))
 (let ((?x353 (* l_0_1_14 l_0_1_14)))
 (let ((?x348 (- (* (- _a_0_) (+ (* l_0_1_2 l_0_1_2) (* l_0_1_3 l_0_1_3))) (* (* _a_1_ l_0_1_1) l_0_1_1))))
 (let ((?x356 (- (- (- ?x348 (* (* (* 2.0 _a_4_) l_0_1_1) l_0_1_2)) ?x353) ?x355)))
 (= (- (+ (+ (- ?x356 ?x289) ?x359) ?x362) (/ 1.0 5.0)) 0.0)))))))))))
(assert
 (let ((?x403 (- (* (* (* (- 2.0) _a_0_) l_0_1_1) l_0_1_2) (* (* _a_4_ l_0_1_1) l_0_1_1))))
 (let ((?x408 (+ (- ?x403 (* (* 2.0 l_0_1_13) l_0_1_14)) (* (* 6.0 l_0_1_7) l_0_1_8))))
 (= ?x408 0.0))))
(assert
 (let ((?x432 (+ (* (* 2.0 l_0_1_2) l_0_1_4) (* (* 2.0 l_0_1_3) l_0_1_5))))
 (let ((?x284 (- _a_0_)))
 (let ((?x439 (- (- (* ?x284 ?x432) (* (* (* 2.0 _a_2_) l_0_1_1) l_0_1_2)) (* (* (* 2.0 _a_4_) l_0_1_1) l_0_1_4))))
 (let ((?x444 (+ (- ?x439 (* (* _a_5_ l_0_1_1) l_0_1_1)) (* (* 6.0 l_0_1_10) l_0_1_8))))
 (let ((?x450 (- (+ ?x444 (* (* 6.0 l_0_1_11) l_0_1_9)) (* (* 2.0 l_0_1_14) l_0_1_16))))
 (= (- ?x450 (* (* 2.0 l_0_1_15) l_0_1_17)) 0.0)))))))
(assert
 (let ((?x289 (* l_0_1_7 l_0_1_7)))
 (let ((?x526 (* l_0_1_18 l_0_1_18)))
 (let ((?x524 (* l_0_1_17 l_0_1_17)))
 (let ((?x522 (* l_0_1_16 l_0_1_16)))
 (let ((?x519 (* l_0_1_12 l_0_1_12)))
 (let ((?x520 (* 3.0 ?x519)))
 (let ((?x516 (* l_0_1_11 l_0_1_11)))
 (let ((?x517 (* 3.0 ?x516)))
 (let ((?x513 (* l_0_1_10 l_0_1_10)))
 (let ((?x514 (* 3.0 ?x513)))
 (let ((?x505 (* l_0_1_6 l_0_1_6)))
 (let ((?x506 (+ (+ (* l_0_1_4 l_0_1_4) (* l_0_1_5 l_0_1_5)) ?x505)))
 (let ((?x284 (- _a_0_)))
 (let ((?x512 (- (- (* ?x284 ?x506) (* (* (* 2.0 _a_2_) l_0_1_1) l_0_1_4)) (* (* _a_3_ l_0_1_1) l_0_1_1))))
 (let ((?x528 (- (- (- (- (+ (+ (+ ?x512 ?x514) ?x517) ?x520) ?x522) ?x524) ?x526) ?x289)))
 (= ?x528 0.0)))))))))))))))))
(assert
 (let ((?x571 (* (* 2.0 l_0_1_7) l_0_1_8)))
 (let ((?x569 (- (* (* (* (- 2.0) _a_1_) l_0_1_1) l_0_1_2) (* _a_4_ (+ (* l_0_1_2 l_0_1_2) (* l_0_1_3 l_0_1_3))))))
 (= (- ?x569 ?x571) 0.0))))
(assert
 (let ((?x605 (* 2.0 l_0_1_10)))
 (let ((?x606 (* ?x605 l_0_1_7)))
 (let ((?x432 (+ (* (* 2.0 l_0_1_2) l_0_1_4) (* (* 2.0 l_0_1_3) l_0_1_5))))
 (let ((?x598 (- (* (* (* (- 2.0) _a_1_) l_0_1_1) l_0_1_4) (* _a_2_ (+ (* l_0_1_2 l_0_1_2) (* l_0_1_3 l_0_1_3))))))
 (let ((?x604 (- (- ?x598 (* _a_4_ ?x432)) (* (* (* 2.0 _a_5_) l_0_1_1) l_0_1_2))))
 (= (- ?x604 ?x606) 0.0)))))))
(assert
 (let ((?x361 (* l_0_1_9 l_0_1_9)))
 (let ((?x358 (* l_0_1_8 l_0_1_8)))
 (let ((?x658 (- (* (- _a_1_) (+ (* l_0_1_2 l_0_1_2) (* l_0_1_3 l_0_1_3))) ?x358)))
 (= (- ?x658 ?x361) 0.0)))))
(assert
 (let ((?x681 (* (* 2.0 l_0_1_11) l_0_1_9)))
 (let ((?x605 (* 2.0 l_0_1_10)))
 (let ((?x678 (* ?x605 l_0_1_8)))
 (let ((?x432 (+ (* (* 2.0 l_0_1_2) l_0_1_4) (* (* 2.0 l_0_1_3) l_0_1_5))))
 (let ((?x656 (- _a_1_)))
 (let ((?x677 (- (* ?x656 ?x432) (* _a_5_ (+ (* l_0_1_2 l_0_1_2) (* l_0_1_3 l_0_1_3))))))
 (= (- (- ?x677 ?x678) ?x681) 0.0))))))))
(assert
 (let ((?x361 (* l_0_1_9 l_0_1_9)))
 (let ((?x358 (* l_0_1_8 l_0_1_8)))
 (let ((?x519 (* l_0_1_12 l_0_1_12)))
 (let ((?x516 (* l_0_1_11 l_0_1_11)))
 (let ((?x513 (* l_0_1_10 l_0_1_10)))
 (let ((?x432 (+ (* (* 2.0 l_0_1_2) l_0_1_4) (* (* 2.0 l_0_1_3) l_0_1_5))))
 (let ((?x505 (* l_0_1_6 l_0_1_6)))
 (let ((?x506 (+ (+ (* l_0_1_4 l_0_1_4) (* l_0_1_5 l_0_1_5)) ?x505)))
 (let ((?x656 (- _a_1_)))
 (let ((?x715 (- (* ?x656 ?x506) (* _a_3_ (+ (* l_0_1_2 l_0_1_2) (* l_0_1_3 l_0_1_3))))))
 (let ((?x722 (- (- (- (- (- (- ?x715 (* _a_5_ ?x432)) ?x513) ?x516) ?x519) ?x358) ?x361)))
 (= ?x722 0.0)))))))))))))
(assert
 (let ((?x571 (* (* 2.0 l_0_1_7) l_0_1_8)))
 (let ((?x505 (* l_0_1_6 l_0_1_6)))
 (let ((?x506 (+ (+ (* l_0_1_4 l_0_1_4) (* l_0_1_5 l_0_1_5)) ?x505)))
 (let ((?x432 (+ (* (* 2.0 l_0_1_2) l_0_1_4) (* (* 2.0 l_0_1_3) l_0_1_5))))
 (let ((?x776 (- _a_2_)))
 (let ((?x783 (- (- (* ?x776 ?x432) (* (* (* 2.0 _a_3_) l_0_1_1) l_0_1_2)) (* _a_4_ ?x506))))
 (= (- (- ?x783 (* (* (* 2.0 _a_5_) l_0_1_1) l_0_1_4)) ?x571) 0.0))))))))
(assert
 (let ((?x605 (* 2.0 l_0_1_10)))
 (let ((?x606 (* ?x605 l_0_1_7)))
 (let ((?x505 (* l_0_1_6 l_0_1_6)))
 (let ((?x506 (+ (+ (* l_0_1_4 l_0_1_4) (* l_0_1_5 l_0_1_5)) ?x505)))
 (let ((?x776 (- _a_2_)))
 (let ((?x829 (- (- (* ?x776 ?x506) (* (* (* 2.0 _a_3_) l_0_1_1) l_0_1_4)) ?x606)))
 (= ?x829 0.0))))))))
(assert
 (let ((?x681 (* (* 2.0 l_0_1_11) l_0_1_9)))
 (let ((?x605 (* 2.0 l_0_1_10)))
 (let ((?x678 (* ?x605 l_0_1_8)))
 (let ((?x505 (* l_0_1_6 l_0_1_6)))
 (let ((?x506 (+ (+ (* l_0_1_4 l_0_1_4) (* l_0_1_5 l_0_1_5)) ?x505)))
 (let ((?x432 (+ (* (* 2.0 l_0_1_2) l_0_1_4) (* (* 2.0 l_0_1_3) l_0_1_5))))
 (let ((?x849 (- _a_3_)))
 (= (- (- (- (* ?x849 ?x432) (* _a_5_ ?x506)) ?x678) ?x681) 0.0)))))))))
(assert
 (let ((?x519 (* l_0_1_12 l_0_1_12)))
 (let ((?x516 (* l_0_1_11 l_0_1_11)))
 (let ((?x513 (* l_0_1_10 l_0_1_10)))
 (let ((?x505 (* l_0_1_6 l_0_1_6)))
 (let ((?x506 (+ (+ (* l_0_1_4 l_0_1_4) (* l_0_1_5 l_0_1_5)) ?x505)))
 (let ((?x849 (- _a_3_)))
 (= (- (- (- (* ?x849 ?x506) ?x513) ?x516) ?x519) 0.0))))))))
(assert
 (>= l_0_1_1 0.0))
(assert
 (>= l_0_1_3 0.0))
(assert
 (>= l_0_1_6 0.0))
(assert
 (>= l_0_1_7 0.0))
(assert
 (>= l_0_1_9 0.0))
(assert
 (>= l_0_1_12 0.0))
(assert
 (>= l_0_1_13 0.0))
(assert
 (>= l_0_1_15 0.0))
(assert
 (>= l_0_1_18 0.0))
(assert
 (let ((?x925 (* l_0_2_13 l_0_2_13)))
 (let ((?x923 (* 1.0 _a_5_)))
 (let ((?x916 (+ (+ (* (* (- _a_0_) l_0_2_1) l_0_2_1) _a_0_) (* 1.0 _a_1_))))
 (let ((?x922 (- (+ (+ ?x916 (* 1.0 _a_2_)) (* 1.0 _a_3_)) (* 1.0 _a_4_))))
 (= (- (- (- ?x922 ?x923) ?x925) (* (* 3.0 l_0_2_7) l_0_2_7)) 0.0))))))
(assert
 (let ((?x957 (* l_0_2_9 l_0_2_9)))
 (let ((?x955 (* l_0_2_8 l_0_2_8)))
 (let ((?x954 (+ (* (- _a_1_) (+ (* l_0_2_2 l_0_2_2) (* l_0_2_3 l_0_2_3))) _a_1_)))
 (= (+ (+ ?x954 ?x955) ?x957) 0.0)))))
(assert
 (let ((?x983 (* 2.0 l_0_2_10)))
 (let ((?x984 (* ?x983 l_0_2_7)))
 (let ((?x977 (+ (* (* 2.0 l_0_2_2) l_0_2_4) (* (* 2.0 l_0_2_3) l_0_2_5))))
 (let ((?x972 (- (+ (* (* (* (- 2.0) _a_1_) l_0_2_1) l_0_2_4) (* 2.0 _a_1_)) (* _a_2_ (+ (* l_0_2_2 l_0_2_2) (* l_0_2_3 l_0_2_3))))))
 (let ((?x982 (- (- ?x972 (* _a_4_ ?x977)) (* (* (* 2.0 _a_5_) l_0_2_1) l_0_2_2))))
 (= (+ ?x982 ?x984) 0.0)))))))
(assert
 (let ((?x943 (* l_0_2_7 l_0_2_7)))
 (let ((?x1045 (* l_0_2_15 l_0_2_15)))
 (let ((?x1043 (* l_0_2_14 l_0_2_14)))
 (let ((?x923 (* 1.0 _a_5_)))
 (let ((?x969 (* 2.0 _a_1_)))
 (let ((?x1036 (- (* (- _a_0_) (+ (* l_0_2_2 l_0_2_2) (* l_0_2_3 l_0_2_3))) (* (* _a_1_ l_0_2_1) l_0_2_1))))
 (let ((?x1041 (+ (- (- ?x1036 ?x969) (* (* (* 2.0 _a_4_) l_0_2_1) l_0_2_2)) _a_4_)))
 (let ((?x1050 (- (+ (- (- (+ ?x1041 ?x923) ?x1043) ?x1045) ?x943) (* (* 3.0 l_0_2_8) l_0_2_8))))
 (= (- ?x1050 (* (* 3.0 l_0_2_9) l_0_2_9)) 0.0))))))))))
(assert
 (let ((?x943 (* l_0_2_7 l_0_2_7)))
 (let ((?x1123 (* l_0_2_18 l_0_2_18)))
 (let ((?x1121 (* l_0_2_17 l_0_2_17)))
 (let ((?x1119 (* l_0_2_16 l_0_2_16)))
 (let ((?x923 (* 1.0 _a_5_)))
 (let ((?x778 (* 2.0 _a_3_)))
 (let ((?x1097 (* l_0_2_6 l_0_2_6)))
 (let ((?x1098 (+ (+ (* l_0_2_4 l_0_2_4) (* l_0_2_5 l_0_2_5)) ?x1097)))
 (let ((?x284 (- _a_0_)))
 (let ((?x1103 (- (+ (* ?x284 ?x1098) _a_1_) (* (* (* 2.0 _a_2_) l_0_2_1) l_0_2_4))))
 (let ((?x1109 (- (+ (- (+ ?x1103 _a_2_) (* (* _a_3_ l_0_2_1) l_0_2_1)) ?x778) ?x923)))
 (let ((?x1115 (- (- ?x1109 (* (* 3.0 l_0_2_10) l_0_2_10)) (* (* 3.0 l_0_2_11) l_0_2_11))))
 (let ((?x1124 (- (- (- (- ?x1115 (* (* 3.0 l_0_2_12) l_0_2_12)) ?x1119) ?x1121) ?x1123)))
 (= (+ ?x1124 ?x943) 0.0)))))))))))))))
(assert
 (let ((?x923 (* 1.0 _a_5_)))
 (let ((?x1183 (- (- (* (* (* (- 2.0) _a_0_) l_0_2_1) l_0_2_4) (* 2.0 _a_1_)) (* (* _a_2_ l_0_2_1) l_0_2_1))))
 (let ((?x1191 (- (- (+ (+ ?x1183 _a_4_) ?x923) (* (* 6.0 l_0_2_10) l_0_2_7)) (* (* 2.0 l_0_2_13) l_0_2_16))))
 (= ?x1191 0.0)))))
(assert
 (let ((?x601 (* 2.0 _a_5_)))
 (let ((?x1220 (* 4.0 _a_3_)))
 (let ((?x434 (* 2.0 _a_2_)))
 (let ((?x977 (+ (* (* 2.0 l_0_2_2) l_0_2_4) (* (* 2.0 l_0_2_3) l_0_2_5))))
 (let ((?x284 (- _a_0_)))
 (let ((?x1221 (+ (+ (- (* ?x284 ?x977) (* (* ?x434 l_0_2_1) l_0_2_2)) ?x434) ?x1220)))
 (let ((?x1226 (- (- ?x1221 (* (* (* 2.0 _a_4_) l_0_2_1) l_0_2_4)) (* (* _a_5_ l_0_2_1) l_0_2_1))))
 (let ((?x1232 (- (- (- ?x1226 ?x601) (* (* 6.0 l_0_2_10) l_0_2_8)) (* (* 6.0 l_0_2_11) l_0_2_9))))
 (let ((?x1238 (- (- ?x1232 (* (* 2.0 l_0_2_14) l_0_2_16)) (* (* 2.0 l_0_2_15) l_0_2_17))))
 (= ?x1238 0.0)))))))))))
(assert
 (let ((?x957 (* l_0_2_9 l_0_2_9)))
 (let ((?x955 (* l_0_2_8 l_0_2_8)))
 (let ((?x1161 (* l_0_2_12 l_0_2_12)))
 (let ((?x1155 (* l_0_2_11 l_0_2_11)))
 (let ((?x1149 (* l_0_2_10 l_0_2_10)))
 (let ((?x977 (+ (* (* 2.0 l_0_2_2) l_0_2_4) (* (* 2.0 l_0_2_3) l_0_2_5))))
 (let ((?x1220 (* 4.0 _a_3_)))
 (let ((?x1097 (* l_0_2_6 l_0_2_6)))
 (let ((?x1098 (+ (+ (* l_0_2_4 l_0_2_4) (* l_0_2_5 l_0_2_5)) ?x1097)))
 (let ((?x656 (- _a_1_)))
 (let ((?x1297 (- (* ?x656 ?x1098) (* _a_3_ (+ (* l_0_2_2 l_0_2_2) (* l_0_2_3 l_0_2_3))))))
 (let ((?x1304 (+ (+ (+ (+ (- (+ ?x1297 ?x1220) (* _a_5_ ?x977)) _a_5_) ?x1149) ?x1155) ?x1161)))
 (= (+ (+ ?x1304 ?x955) ?x957) 0.0))))))))))))))
(assert
 (let ((?x1355 (* (* 2.0 l_0_2_11) l_0_2_9)))
 (let ((?x983 (* 2.0 l_0_2_10)))
 (let ((?x1352 (* ?x983 l_0_2_8)))
 (let ((?x1097 (* l_0_2_6 l_0_2_6)))
 (let ((?x1098 (+ (+ (* l_0_2_4 l_0_2_4) (* l_0_2_5 l_0_2_5)) ?x1097)))
 (let ((?x1220 (* 4.0 _a_3_)))
 (let ((?x977 (+ (* (* 2.0 l_0_2_2) l_0_2_4) (* (* 2.0 l_0_2_3) l_0_2_5))))
 (let ((?x849 (- _a_3_)))
 (= (+ (+ (- (+ (* ?x849 ?x977) ?x1220) (* _a_5_ ?x1098)) ?x1352) ?x1355) 0.0))))))))))
(assert
 (let ((?x1161 (* l_0_2_12 l_0_2_12)))
 (let ((?x1155 (* l_0_2_11 l_0_2_11)))
 (let ((?x1149 (* l_0_2_10 l_0_2_10)))
 (let ((?x1097 (* l_0_2_6 l_0_2_6)))
 (let ((?x1098 (+ (+ (* l_0_2_4 l_0_2_4) (* l_0_2_5 l_0_2_5)) ?x1097)))
 (let ((?x849 (- _a_3_)))
 (= (+ (+ (+ (+ (* ?x849 ?x1098) _a_3_) ?x1149) ?x1155) ?x1161) 0.0))))))))
(assert
 (let ((?x1355 (* (* 2.0 l_0_2_11) l_0_2_9)))
 (let ((?x983 (* 2.0 l_0_2_10)))
 (let ((?x1352 (* ?x983 l_0_2_8)))
 (let ((?x601 (* 2.0 _a_5_)))
 (let ((?x977 (+ (* (* 2.0 l_0_2_2) l_0_2_4) (* (* 2.0 l_0_2_3) l_0_2_5))))
 (let ((?x656 (- _a_1_)))
 (let ((?x1400 (- (* ?x656 ?x977) (* _a_5_ (+ (* l_0_2_2 l_0_2_2) (* l_0_2_3 l_0_2_3))))))
 (= (+ (+ (+ ?x1400 ?x601) ?x1352) ?x1355) 0.0)))))))))
(assert
 (let ((?x1434 (* (* 2.0 l_0_2_7) l_0_2_8)))
 (let ((?x601 (* 2.0 _a_5_)))
 (let ((?x1097 (* l_0_2_6 l_0_2_6)))
 (let ((?x1098 (+ (+ (* l_0_2_4 l_0_2_4) (* l_0_2_5 l_0_2_5)) ?x1097)))
 (let ((?x977 (+ (* (* 2.0 l_0_2_2) l_0_2_4) (* (* 2.0 l_0_2_3) l_0_2_5))))
 (let ((?x776 (- _a_2_)))
 (let ((?x1429 (- (- (* ?x776 ?x977) (* (* (* 2.0 _a_3_) l_0_2_1) l_0_2_2)) (* _a_4_ ?x1098))))
 (= (+ (+ (- ?x1429 (* (* ?x601 l_0_2_1) l_0_2_4)) ?x601) ?x1434) 0.0)))))))))
(assert
 (let ((?x983 (* 2.0 l_0_2_10)))
 (let ((?x984 (* ?x983 l_0_2_7)))
 (let ((?x1097 (* l_0_2_6 l_0_2_6)))
 (let ((?x1098 (+ (+ (* l_0_2_4 l_0_2_4) (* l_0_2_5 l_0_2_5)) ?x1097)))
 (let ((?x776 (- _a_2_)))
 (let ((?x1477 (+ (- (* ?x776 ?x1098) (* (* (* 2.0 _a_3_) l_0_2_1) l_0_2_4)) _a_5_)))
 (= (+ ?x1477 ?x984) 0.0))))))))
(assert
 (let ((?x1498 (- (* (* (* (- 2.0) _a_0_) l_0_2_1) l_0_2_2) (* (* _a_4_ l_0_2_1) l_0_2_1))))
 (let ((?x1503 (- (- ?x1498 (* (* 2.0 l_0_2_13) l_0_2_14)) (* (* 6.0 l_0_2_7) l_0_2_8))))
 (= ?x1503 0.0))))
(assert
 (let ((?x1434 (* (* 2.0 l_0_2_7) l_0_2_8)))
 (let ((?x1528 (- (* (* (* (- 2.0) _a_1_) l_0_2_1) l_0_2_2) (* _a_4_ (+ (* l_0_2_2 l_0_2_2) (* l_0_2_3 l_0_2_3))))))
 (= (+ ?x1528 ?x1434) 0.0))))
(assert
 (>= l_0_2_1 0.0))
(assert
 (>= l_0_2_3 0.0))
(assert
 (>= l_0_2_6 0.0))
(assert
 (>= l_0_2_7 0.0))
(assert
 (>= l_0_2_9 0.0))
(assert
 (>= l_0_2_12 0.0))
(assert
 (>= l_0_2_13 0.0))
(assert
 (>= l_0_2_15 0.0))
(assert
 (>= l_0_2_18 0.0))
(check-sat)
(get-model)